Route #1: 105 19 188 57 63 172 83 182 160 165 88 4 102 103 108 129 133 72 139 14 16 170 117 26 49 119 106 29
Route #2: 163 128 95 112 25 183 136 167 143 97 150 78 169 80 85 138 159 28 58 43 10 73 34
Route #3: 147 24 12 176 5 47 101 52 71 123 177 148 54 174 151 137 125 86 77 22 38 6 2 36 39 30
Route #4: 142 104 89 109 35 48 126 76 185 18 40 32 61 180 153 84 98 141 70 181 41 152 87 186 146
Route #5: 81 68 130 56 8 100 42 62 179 55 23 111 161 74 164 158 69 178 21 94 144 115 145
Route #6: 132 134 113 91 59 96 9 114 65 20 162 7 53 140 189 154 17 155 79 116 60 11
Route #7: 51 46 92 135 93 75 121 50 90 15 124 187 27 3 107 33 82 122 175 173 157 166 67
Route #8: 37 131 118 31 99 45 184 149 1 156 44 127 168 120 13 171 110 66 64
Cost 18305
